NPROCS=0
This instance is clustered!
Gurobi Optimizer version 9.0.0 build v9.0.0rc2 (linux64)
Optimize a model with 32 rows, 257 columns and 512 nonzeros
Model fingerprint: 0xf3d2593a
Variable types: 1 continuous, 256 integer (256 binary)
Coefficient statistics:
  Matrix range     [1e+00, 1e+00]
  Objective range  [1e+00, 2e+02]
  Bounds range     [1e+00, 1e+00]
  RHS range        [1e+00, 1e+00]
Presolve removed 2 rows and 45 columns
Presolve time: 0.00s
Presolved: 30 rows, 212 columns, 422 nonzeros
Variable types: 1 continuous, 211 integer (211 binary)

Root relaxation: objective 3.575663e+02, 30 iterations, 0.00 seconds

    Nodes    |    Current Node    |     Objective Bounds      |     Work
 Expl Unexpl |  Obj  Depth IntInf | Incumbent    BestBd   Gap | It/Node Time

     0     0  357.56633    0   10          -  357.56633      -     -    0s
H    0     0                     934.9874715  357.56633  61.8%     -    0s
H    0     0                     903.6157092  357.56633  60.4%     -    0s
     0     0  523.55817    0   20  903.61571  523.55817  42.1%     -    0s
     0     0  533.83175    0   22  903.61571  533.83175  40.9%     -    0s
H    0     0                     609.3662714  533.83175  12.4%     -    0s
     0     0  533.83175    0   22  609.36627  533.83175  12.4%     -    0s
     0     0  535.75323    0   12  609.36627  535.75323  12.1%     -    0s
     0     0  535.75323    0   33  609.36627  535.75323  12.1%     -    0s
     0     0  535.94231    0   14  609.36627  535.94231  12.0%     -    0s
     0     0  535.94231    0   31  609.36627  535.94231  12.0%     -    0s
     0     0  535.94231    0   21  609.36627  535.94231  12.0%     -    0s
H    0     0                     605.5360543  535.94231  11.5%     -    0s
     0     0  537.38984    0   33  605.53605  537.38984  11.3%     -    0s
     0     0  537.38984    0   27  605.53605  537.38984  11.3%     -    0s
     0     0  537.38984    0   31  605.53605  537.38984  11.3%     -    0s
     0     0  537.38984    0   29  605.53605  537.38984  11.3%     -    0s
H    0     0                     604.7412982  537.38984  11.1%     -    0s
     0     0  537.38984    0   29  604.74130  537.38984  11.1%     -    0s
     0     2  537.38984    0   29  604.74130  537.38984  11.1%     -    0s

Cutting planes:
  Gomory: 3
  Zero half: 2
  Lazy constraints: 1126

Explored 6504 nodes (25006 simplex iterations) in 1.23 seconds
Thread count was 12 (of 12 available processors)

Solution count 5: 604.741 605.536 609.366 ... 934.987

Optimal solution found (tolerance 1.00e-04)
Best objective 6.047412981892e+02, best bound 6.047412981892e+02, gap 0.0000%

User-callback calls 14665, time in user-callback 0.08 sec
/projects/academic/josewalt/caigao/RRARP_BD/BendersDecomp/ret/model_outs/n_14_e_3_algo_2.out
 =====>>>>> Solution is written to file in <../ret/model_outs> !!!
===>> All Done!
